1 3 100 88823.22
1 3 200 89448.36
1 3 300 87962.31
2 3 100 104506.53
2 3 200 104623.23
2 3 300 103834.71
3 3 100 102342.48
3 3 200 101230.22
3 3 300 102551.52
4 3 100 101821.26
4 3 200 102095.29
4 3 300 100998.78
5 3 100 98660.65
5 3 200 98732.38
5 3 300 98436.90
